! WB97X-D3 def2-TZVP def2/J  RIJCOSX

%maxcore 2000

%pal
   nprocs 24
end

*xyz 0 1
*
