! CAM-B3LYP RIJCOSX def2-TZVP def2/J TightSCF opt

%maxcore 5000
%tddft
        nroots 3
        Iroot 1
        tda false
end

*xyz 0 1
*
